words_hard_train/9315.qaiger
aag 125 16 0 1 109
2
4
8
10
14
22
28
32
98
100
104
148
172
184
212
228
250
6 2 4
12 9 11
16 12 15
18 17 4
20 7 19
24 20 23
26 25 4
30 27 29
34 30 33
36 34 4
38 31 4
40 39 33
42 38 32
44 41 43
46 26 28
48 47 31
50 21 22
52 25 51
54 13 4
56 55 15
58 54 14
60 57 59
62 19 2
64 18 3
66 63 65
68 60 67
70 52 68
72 49 71
74 44 73
76 37 75
78 48 70
80 79 73
82 12 14
84 82 67
86 53 69
88 87 71
90 84 89
92 80 90
94 44 92
96 76 95
102 98 100
106 103 105
108 102 104
110 107 109
112 111 61
114 113 83
116 8 4
118 117 10
120 116 11
122 119 121
124 98 9
126 125 101
128 123 126
130 129 103
132 110 60
134 131 133
136 134 13
138 114 137
140 60 13
142 141 66
144 140 67
146 143 145
150 109 149
152 108 148
154 151 153
156 147 154
158 139 157
160 146 155
162 159 161
164 85 88
166 165 91
168 162 166
170 163 167
174 153 173
176 152 172
178 175 177
180 171 178
182 169 181
186 177 185
188 176 184
190 187 189
192 81 91
194 193 93
196 191 195
198 183 197
200 190 194
202 199 201
204 93 73
206 205 45
208 204 44
210 207 209
214 189 213
216 188 212
218 215 217
220 211 218
222 202 221
224 210 219
226 223 225
230 216 229
232 217 228
234 231 233
236 226 234
238 96 237
240 77 94
242 236 240
244 239 243
246 227 241
248 246 235
250 244 249
i0 1 x2[3]
i1 1 x2[7]
i2 1 x2[0]
i3 1 x2[1]
i4 1 x2[2]
i5 1 x2[4]
i6 1 x2[5]
i7 1 x2[6]
i8 2 y1[0]
i9 2 y1[1]
i10 2 y1[2]
i11 2 y1[3]
i12 2 y1[4]
i13 2 y1[5]
i14 2 y1[6]
i15 2 y1[7]
o0 bv[0]
c
simplified
  >=
    add
      1
      2 y1
    add
      abs
        1 x2
      36
