words_hard_train/9315.qaiger.qdimacs
p cnf 125 328
a 1 2 4 5 7 11 14 16 0
e 3 6 8 9 10 12 13 15 17 18 19 20 21 22 23 24 25 26 27 28 29 30 31 32 33 34 35 36 37 38 39 40 41 42 43 44 45 46 47 48 49 50 51 52 53 54 55 56 57 58 59 60 61 62 63 64 65 66 67 68 69 70 71 72 73 74 75 76 77 78 79 80 81 82 83 84 85 86 87 88 89 90 91 92 93 94 95 96 97 98 99 100 101 102 103 104 105 106 107 108 109 110 111 112 113 114 115 116 117 118 119 120 121 122 123 124 125 0
-1 -2 3 0
1 -3 0
2 -3 0
4 5 6 0
-4 -6 0
-5 -6 0
-6 7 8 0
6 -8 0
-7 -8 0
8 -2 9 0
-8 -9 0
2 -9 0
3 9 10 0
-3 -10 0
-9 -10 0
-10 11 12 0
10 -12 0
-11 -12 0
12 -2 13 0
-12 -13 0
2 -13 0
13 14 15 0
-13 -15 0
-14 -15 0
-15 16 17 0
15 -17 0
-16 -17 0
-17 -2 18 0
17 -18 0
2 -18 0
15 -2 19 0
-15 -19 0
2 -19 0
19 16 20 0
-19 -20 0
-16 -20 0
-19 -16 21 0
19 -21 0
16 -21 0
20 21 22 0
-20 -22 0
-21 -22 0
-13 -14 23 0
13 -23 0
14 -23 0
23 15 24 0
-23 -24 0
-15 -24 0
10 -11 25 0
-10 -25 0
11 -25 0
12 25 26 0
-12 -26 0
-25 -26 0
6 -2 27 0
-6 -27 0
2 -27 0
27 7 28 0
-27 -28 0
-7 -28 0
-27 -7 29 0
27 -29 0
7 -29 0
28 29 30 0
-28 -30 0
-29 -30 0
9 -1 31 0
-9 -31 0
1 -31 0
-9 1 32 0
9 -32 0
-1 -32 0
31 32 33 0
-31 -33 0
-32 -33 0
-30 33 34 0
30 -34 0
-33 -34 0
-26 -34 35 0
26 -35 0
34 -35 0
24 35 36 0
-24 -36 0
-35 -36 0
-22 36 37 0
22 -37 0
-36 -37 0
18 37 38 0
-18 -38 0
-37 -38 0
-24 -35 39 0
24 -39 0
35 -39 0
39 36 40 0
-39 -40 0
-36 -40 0
-6 -7 41 0
6 -41 0
7 -41 0
-41 33 42 0
41 -42 0
-33 -42 0
26 34 43 0
-26 -43 0
-34 -43 0
43 35 44 0
-43 -44 0
-35 -44 0
-42 44 45 0
42 -45 0
-44 -45 0
-40 -45 46 0
40 -46 0
45 -46 0
-22 -46 47 0
22 -47 0
46 -47 0
-38 47 48 0
38 -48 0
-47 -48 0
-49 -50 51 0
49 -51 0
50 -51 0
51 52 53 0
-51 -53 0
-52 -53 0
-51 -52 54 0
51 -54 0
52 -54 0
53 54 55 0
-53 -55 0
-54 -55 0
55 30 56 0
-55 -56 0
-30 -56 0
56 41 57 0
-56 -57 0
-41 -57 0
-4 -2 58 0
4 -58 0
2 -58 0
58 -5 59 0
-58 -59 0
5 -59 0
-58 5 60 0
58 -60 0
-5 -60 0
59 60 61 0
-59 -61 0
-60 -61 0
-49 4 62 0
49 -62 0
-4 -62 0
62 50 63 0
-62 -63 0
-50 -63 0
61 -63 64 0
-61 -64 0
63 -64 0
64 51 65 0
-64 -65 0
-51 -65 0
-55 -30 66 0
55 -66 0
30 -66 0
65 66 67 0
-65 -67 0
-66 -67 0
-67 6 68 0
67 -68 0
-6 -68 0
-57 68 69 0
57 -69 0
-68 -69 0
-30 6 70 0
30 -70 0
-6 -70 0
70 -33 71 0
-70 -71 0
33 -71 0
-70 33 72 0
70 -72 0
-33 -72 0
71 72 73 0
-71 -73 0
-72 -73 0
54 74 75 0
-54 -75 0
-74 -75 0
-54 -74 76 0
54 -76 0
74 -76 0
75 76 77 0
-75 -77 0
-76 -77 0
73 -77 78 0
-73 -78 0
77 -78 0
69 78 79 0
-69 -79 0
-78 -79 0
-73 77 80 0
73 -80 0
-77 -80 0
79 80 81 0
-79 -81 0
-80 -81 0
42 -44 82 0
-42 -82 0
44 -82 0
82 45 83 0
-82 -83 0
-45 -83 0
-81 -83 84 0
81 -84 0
83 -84 0
81 83 85 0
-81 -85 0
-83 -85 0
76 86 87 0
-76 -87 0
-86 -87 0
-76 -86 88 0
76 -88 0
86 -88 0
87 88 89 0
-87 -89 0
-88 -89 0
85 -89 90 0
-85 -90 0
89 -90 0
84 90 91 0
-84 -91 0
-90 -91 0
88 92 93 0
-88 -93 0
-92 -93 0
-88 -92 94 0
88 -94 0
92 -94 0
93 94 95 0
-93 -95 0
-94 -95 0
40 45 96 0
-40 -96 0
-45 -96 0
96 46 97 0
-96 -97 0
-46 -97 0
95 97 98 0
-95 -98 0
-97 -98 0
91 98 99 0
-91 -99 0
-98 -99 0
-95 -97 100 0
95 -100 0
97 -100 0
99 100 101 0
-99 -101 0
-100 -101 0
46 36 102 0
-46 -102 0
-36 -102 0
102 22 103 0
-102 -103 0
-22 -103 0
-102 -22 104 0
102 -104 0
22 -104 0
103 104 105 0
-103 -105 0
-104 -105 0
94 106 107 0
-94 -107 0
-106 -107 0
-94 -106 108 0
94 -108 0
106 -108 0
107 108 109 0
-107 -109 0
-108 -109 0
105 -109 110 0
-105 -110 0
109 -110 0
-101 110 111 0
101 -111 0
-110 -111 0
-105 109 112 0
105 -112 0
-109 -112 0
111 112 113 0
-111 -113 0
-112 -113 0
-108 114 115 0
108 -115 0
-114 -115 0
108 -114 116 0
-108 -116 0
114 -116 0
115 116 117 0
-115 -117 0
-116 -117 0
-113 -117 118 0
113 -118 0
117 -118 0
-48 118 119 0
48 -119 0
-118 -119 0
38 -47 120 0
-38 -120 0
47 -120 0
-118 -120 121 0
118 -121 0
120 -121 0
119 121 122 0
-119 -122 0
-121 -122 0
113 120 123 0
-113 -123 0
-120 -123 0
-123 117 124 0
123 -124 0
-117 -124 0
-122 124 125 0
122 -125 0
-124 -125 0
125 0
